NAME: random_points
TYPE: TSP
DIMENSION: 24
EDGE_WEIGHT_TYPE: EUC_2D
NODE_COORD_SECTION
1 492 42
2 354 770
3 458 503
4 571 632
5 399 171
6 26 655
7 22 17
8 843 316
9 133 551
10 524 969
11 187 182
12 129 117
13 883 108
14 163 880
15 373 241
16 699 884
17 840 522
18 466 131
19 307 380
20 589 690
21 787 873
22 851 178
23 278 737
24 688 279
EOF
